%Mem=16GB
%NProcShared=8
#P M062X/6-31+G** EmpiricalDispersion=GD3 SCRF(SMD,solvent=DiMethylSulfoxide) Opt Freq

872-36-6

1 1
 O   -1.9336    0.0000   -0.0008
 C   -0.7179    0.0000   -0.0011
 O    0.0735    1.0847    0.0009
 C    1.3613    0.6617    0.0002
 C    1.3613   -0.6617   -0.0022
 O    0.0735   -1.0847    0.0024
 H    2.2361    1.2951    0.0009
 H    2.2361   -1.2951   -0.0038
 Li   -2.9265    0.0000   -0.0004

