%Mem=16GB
%NProcShared=8
#P M062X/6-31+G** EmpiricalDispersion=GD3 SCRF(SMD,solvent=DiMethylSulfoxide) Opt Freq

4427-96-7

1 1
 C    3.1116    0.4034    0.0615
 C    1.8904    0.2228    0.4999
 C    0.7805   -0.0914   -0.4698
 H    1.1621   -0.1191   -1.4905
 C    0.1086   -1.4298   -0.1073
 O   -1.2726   -1.0622    0.1778
 C   -1.4177    0.2576    0.0189
 O   -2.4720    0.8342    0.1936
 O   -0.2938    0.8864   -0.3519
 H    3.9070    0.6286    0.7565
 H    3.3238    0.3227   -0.9943
 H    1.6790    0.2991    1.5563
 H    0.1544   -2.1211   -0.9489
 H    0.5778   -1.8670    0.7740
 Li    6.9070   -0.2026   -0.0232

